NAME : rcdp1001
TYPE : VRPSPDTW
DIMENSION : 11
VEHICLES : 3
CAPACITY : 200
EDGE_WEIGHT_TYPE : EXACT_2D
NODE_COORD_SECTION
1 40 50
2 88 30
3 42 5
4 72 35
5 10 20
6 65 55
7 27 43
8 12 24
9 49 42
10 57 48
11 31 67
PICKUP_AND_DELIVERY_SECTION
1 0 0 240 0 0 0
2 0 74 104 10 10 10
3 0 151 181 10 40 10
4 0 116 146 10 10 30
5 0 42 72 10 20 19
6 0 65 95 10 23 14
7 0 42 72 10 16 9
8 0 90 120 10 23 13
9 0 167 197 10 3 13
10 0 95 125 10 25 23
11 0 180 210 10 26 3
DEPOT_SECTION
1 
-1
